3	25
698	682	959	23	291	940	931	562	64	891	188	12	469	335	437	811	395	455	829	583	717	32	989	271	774	
393	410	68	144	188	321	952	192	838	624	936	193	256	759	820	988	259	925	831	870	781	760	351	3	580	
3361	3361	3361	
